1000
300 300
1 210 30
2 210 582
3 210 476
4 210 806
5 210 374
6 210 960
7 210 668
8 210 46
9 210 63
10 210 621
11 209 218
12 209 284
13 209 830
14 209 18
15 209 464
16 208 513
17 208 154
18 208 239
19 207 456
20 207 132
21 207 323
22 207 409
23 207 705
24 207 410
25 207 613
26 207 653
27 207 611
28 206 527
29 206 560
30 206 682
31 205 406
32 205 300
33 205 875
34 205 776
35 205 570
36 205 884
37 205 748
38 205 889
39 205 830
40 205 589
41 204 936
42 204 689
43 204 616
44 204 618
45 203 354
46 203 908
47 202 645
48 202 198
49 202 510
50 202 920
51 202 312
52 202 467
53 201 804
54 201 747
55 201 989
56 201 884
57 201 488
58 200 438
59 200 160
60 200 617
61 200 732
62 199 100
63 199 947
64 199 711
65 199 313
66 198 897
67 198 213
68 198 259
69 198 824
70 197 200
71 197 54
72 197 584
73 196 84
74 196 808
75 196 725
76 196 779
77 196 69
78 196 98
79 195 2
80 195 584
81 195 830
82 195 466
83 195 475
84 195 947
85 194 171
86 193 594
87 193 406
88 193 460
89 193 229
90 192 870
91 192 407
92 192 353
93 192 641
94 192 670
95 192 770
96 192 92
97 191 475
98 191 955
99 191 43
100 189 792
101 189 211
102 189 141
103 189 113
104 189 76
105 189 635
106 189 12
107 189 817
108 189 402
109 188 203
110 188 786
111 188 687
112 188 288
113 187 901
114 187 667
115 187 708
116 186 858
117 186 988
118 186 119
119 186 854
120 186 101
121 186 763
122 186 203
123 185 290
124 185 910
125 185 417
126 185 59
127 185 642
128 185 717
129 185 808
130 184 215
131 184 708
132 184 633
133 184 977
134 184 293
135 184 80
136 183 140
137 183 605
138 183 226
139 183 866
140 183 979
141 182 467
142 182 693
143 182 954
144 181 870
145 181 394
146 181 238
147 181 985
148 181 662
149 180 886
150 180 737
151 180 307
152 180 976
153 180 341
154 180 436
155 180 493
156 180 440
157 180 823
158 179 803
159 179 961
160 179 692
161 178 974
162 178 736
163 178 51
164 178 852
165 178 825
166 177 400
167 177 260
168 177 539
169 177 297
170 177 480
171 177 375
172 176 327
173 176 878
174 176 367
175 176 553
176 175 952
177 175 984
178 175 942
179 175 594
180 175 214
181 175 328
182 175 125
183 174 380
184 174 732
185 174 375
186 174 823
187 174 950
188 174 190
189 174 144
190 174 355
191 173 82
192 173 443
193 173 543
194 173 438
195 173 49
196 172 281
197 172 215
198 172 238
199 172 65
200 172 644
201 171 639
202 171 233
203 171 771
204 171 432
205 171 45
206 171 547
207 171 126
208 171 978
209 170 9
210 170 679
211 170 130
212 170 524
213 170 553
214 170 630
215 170 682
216 169 250
217 169 606
218 169 979
219 169 306
220 169 689
221 169 74
222 168 348
223 168 693
224 168 856
225 167 381
226 167 147
227 167 496
228 166 90
229 166 984
230 166 923
231 166 677
232 166 523
233 166 811
234 166 171
235 165 107
236 165 895
237 165 348
238 164 961
239 164 952
240 164 79
241 164 601
242 164 411
243 164 343
244 163 47
245 163 470
246 163 649
247 163 691
248 162 326
249 162 15
250 162 514
251 161 54
252 161 508
253 161 945
254 161 92
255 161 48
256 161 358
257 161 749
258 161 548
259 160 959
260 160 21
261 159 346
262 159 364
263 159 554
264 159 230
265 159 633
266 158 915
267 158 565
268 158 377
269 158 842
270 158 621
271 157 183
272 157 605
273 157 326
274 157 330
275 156 709
276 155 339
277 155 843
278 155 795
279 155 574
280 155 159
281 155 974
282 155 446
283 154 17
284 154 176
285 154 850
286 154 539
287 154 348
288 154 525
289 154 385
290 154 59
291 154 37
292 154 791
293 153 744
294 153 795
295 153 236
296 153 992
297 153 378
298 152 467
299 152 350
300 152 369
301 152 296
302 152 447
303 151 565
304 151 925
305 151 235
306 151 621
307 151 23
308 151 699
309 150 446
310 150 618
311 150 604
312 150 894
313 149 876
314 149 252
315 148 914
316 148 218
317 148 572
318 148 426
319 148 97
320 147 60
321 147 158
322 147 970
323 147 343
324 147 702
325 147 330
326 146 581
327 146 409
328 146 40
329 146 219
330 146 241
331 146 128
332 145 733
333 145 226
334 145 601
335 144 392
336 144 637
337 144 765
338 144 617
339 144 616
340 144 574
341 144 192
342 144 59
343 143 939
344 143 706
345 143 314
346 143 665
347 142 946
348 142 621
349 142 453
350 142 991
351 142 802
352 141 724
353 141 829
354 141 525
355 141 499
356 141 315
357 141 915
358 140 906
359 140 708
360 140 910
361 140 770
362 140 535
363 140 50
364 140 874
365 140 194
366 140 816
367 139 188
368 139 147
369 139 407
370 139 804
371 139 342
372 139 734
373 139 299
374 139 930
375 139 144
376 139 824
377 138 443
378 138 37
379 138 285
380 138 961
381 138 834
382 138 527
383 138 490
384 138 167
385 138 769
386 138 592
387 137 709
388 137 610
389 137 723
390 137 657
391 137 507
392 137 953
393 137 736
394 136 787
395 136 793
396 135 122
397 135 413
398 135 644
399 135 755
400 135 520
401 135 843
402 135 365
403 135 658
404 135 549
405 134 835
406 134 309
407 134 825
408 134 937
409 134 373
410 134 959
411 134 853
412 134 579
413 133 711
414 133 396
415 133 642
416 133 380
417 133 650
418 132 593
419 132 767
420 132 12
421 132 650
422 132 149
423 132 620
424 132 792
425 132 816
426 132 71
427 131 750
428 131 993
429 131 841
430 131 820
431 131 961
432 131 832
433 131 292
434 130 734
435 130 595
436 130 94
437 130 918
438 130 768
439 130 810
440 130 328
441 130 38
442 130 12
443 129 538
444 129 8
445 129 400
446 129 85
447 129 909
448 129 352
449 129 181
450 129 839
451 129 201
452 128 773
453 128 160
454 128 634
455 127 625
456 127 343
457 127 512
458 127 406
459 127 128
460 127 985
461 127 255
462 126 505
463 126 483
464 126 761
465 126 386
466 126 137
467 125 804
468 125 724
469 125 968
470 124 266
471 124 513
472 124 879
473 124 70
474 123 635
475 123 212
476 123 550
477 123 432
478 123 218
479 123 341
480 123 287
481 123 499
482 122 549
483 122 251
484 122 438
485 122 551
486 122 552
487 121 612
488 121 349
489 121 770
490 121 621
491 121 430
492 121 394
493 120 482
494 120 403
495 120 138
496 120 907
497 120 182
498 120 295
499 120 496
500 120 12
501 119 971
502 119 913
503 119 211
504 119 140
505 119 904
506 118 848
507 118 213
508 118 183
509 118 79
510 118 151
511 118 722
512 118 344
513 117 590
514 117 47
515 117 379
516 117 241
517 117 151
518 116 832
519 116 509
520 116 379
521 116 930
522 116 332
523 116 235
524 115 743
525 115 543
526 115 182
527 115 341
528 115 669
529 115 393
530 114 315
531 114 256
532 114 402
533 114 85
534 114 379
535 114 43
536 113 893
537 113 852
538 113 714
539 113 587
540 113 168
541 113 615
542 113 451
543 113 310
544 112 870
545 112 194
546 112 925
547 112 270
548 111 930
549 111 329
550 111 770
551 111 241
552 110 811
553 110 352
554 110 714
555 110 618
556 109 581
557 109 808
558 109 365
559 109 226
560 108 273
561 108 195
562 108 110
563 108 595
564 108 730
565 108 349
566 108 438
567 107 501
568 107 337
569 107 363
570 107 138
571 107 506
572 107 863
573 107 763
574 107 346
575 107 361
576 107 469
577 107 608
578 107 285
579 106 235
580 106 991
581 106 806
582 106 454
583 106 219
584 106 872
585 106 998
586 106 170
587 105 835
588 105 461
589 105 441
590 105 135
591 105 717
592 105 739
593 104 324
594 104 140
595 104 425
596 104 597
597 103 120
598 103 797
599 103 287
600 102 815
601 102 284
602 102 890
603 102 598
604 102 551
605 102 786
606 102 765
607 101 239
608 101 336
609 101 609
610 101 295
611 100 102
612 100 791
613 100 685
614 99 666
615 99 913
616 99 81
617 99 997
618 98 479
619 98 828
620 98 349
621 97 919
622 97 100
623 97 194
624 97 413
625 97 632
626 97 721
627 97 560
628 97 721
629 97 775
630 97 133
631 96 462
632 96 870
633 96 816
634 96 334
635 95 951
636 95 317
637 95 593
638 95 428
639 95 67
640 95 441
641 94 958
642 94 878
643 94 320
644 94 10
645 94 197
646 94 311
647 93 884
648 93 683
649 93 197
650 93 512
651 93 125
652 92 898
653 92 596
654 92 845
655 92 483
656 92 178
657 91 373
658 91 44
659 91 1000
660 91 213
661 91 701
662 91 98
663 91 787
664 91 509
665 91 532
666 90 735
667 90 140
668 90 959
669 90 961
670 90 532
671 90 16
672 90 251
673 90 875
674 90 908
675 89 71
676 89 794
677 89 168
678 89 175
679 89 537
680 89 406
681 88 378
682 88 29
683 88 893
684 88 888
685 88 822
686 87 632
687 87 930
688 87 980
689 87 511
690 87 182
691 87 684
692 87 156
693 87 75
694 86 515
695 86 573
696 86 301
697 85 721
698 85 331
699 85 189
700 85 299
701 84 985
702 84 478
703 84 440
704 84 674
705 84 577
706 83 124
707 83 582
708 83 742
709 83 107
710 83 296
711 83 727
712 83 327
713 82 934
714 82 931
715 82 307
716 82 118
717 81 689
718 81 236
719 80 651
720 80 120
721 80 285
722 80 701
723 80 901
724 79 575
725 79 715
726 79 41
727 79 23
728 79 874
729 79 259
730 79 668
731 79 715
732 79 302
733 79 664
734 79 698
735 79 646
736 78 939
737 78 850
738 78 807
739 78 176
740 78 964
741 78 180
742 78 466
743 78 196
744 78 989
745 78 213
746 78 468
747 77 576
748 77 793
749 76 346
750 76 615
751 76 595
752 75 695
753 75 993
754 75 179
755 75 342
756 75 837
757 75 48
758 74 518
759 74 391
760 74 666
761 74 62
762 74 523
763 74 427
764 74 123
765 74 369
766 73 997
767 73 192
768 73 133
769 72 606
770 72 476
771 72 227
772 72 148
773 72 854
774 72 649
775 72 641
776 71 659
777 71 239
778 71 491
779 71 122
780 71 33
781 71 447
782 70 501
783 70 28
784 70 158
785 70 932
786 70 586
787 69 992
788 69 146
789 69 981
790 69 573
791 69 460
792 69 852
793 69 421
794 68 733
795 68 468
796 68 123
797 67 31
798 67 188
799 67 123
800 66 744
801 66 341
802 66 129
803 66 369
804 65 454
805 65 564
806 65 101
807 65 551
808 64 302
809 64 208
810 64 276
811 63 605
812 63 653
813 63 885
814 62 878
815 62 135
816 62 559
817 62 825
818 62 655
819 61 253
820 61 972
821 61 223
822 61 978
823 61 578
824 61 870
825 60 591
826 60 810
827 60 570
828 60 797
829 60 484
830 60 239
831 60 698
832 59 721
833 59 60
834 59 70
835 59 546
836 59 614
837 59 870
838 59 171
839 59 317
840 58 629
841 58 674
842 58 228
843 58 115
844 58 386
845 57 356
846 57 774
847 57 27
848 57 542
849 57 425
850 56 25
851 56 121
852 56 324
853 56 74
854 56 171
855 55 322
856 55 527
857 55 600
858 55 239
859 54 745
860 54 438
861 54 169
862 54 267
863 53 681
864 53 775
865 53 886
866 53 294
867 53 344
868 53 231
869 53 269
870 52 250
871 52 837
872 52 938
873 52 383
874 52 593
875 52 96
876 52 896
877 52 870
878 51 43
879 51 53
880 51 225
881 51 810
882 51 762
883 51 734
884 51 609
885 50 341
886 50 373
887 50 761
888 50 692
889 50 688
890 50 947
891 50 241
892 49 21
893 49 691
894 49 835
895 49 444
896 48 232
897 48 510
898 48 733
899 48 680
900 47 278
901 47 633
902 47 732
903 47 440
904 47 358
905 47 794
906 46 922
907 46 984
908 46 977
909 46 297
910 46 96
911 46 292
912 45 771
913 45 141
914 45 150
915 45 242
916 45 686
917 45 339
918 45 857
919 45 387
920 45 725
921 45 367
922 45 485
923 44 270
924 44 204
925 44 917
926 44 470
927 44 157
928 43 199
929 43 946
930 43 541
931 43 844
932 43 800
933 43 539
934 42 189
935 42 683
936 41 756
937 41 519
938 41 137
939 41 549
940 41 158
941 40 755
942 40 954
943 40 672
944 40 124
945 40 407
946 40 709
947 40 879
948 39 529
949 39 173
950 39 258
951 39 709
952 39 15
953 39 713
954 39 545
955 38 963
956 38 790
957 38 933
958 38 543
959 38 888
960 38 144
961 38 757
962 38 163
963 38 462
964 38 741
965 38 409
966 37 303
967 37 407
968 37 232
969 36 52
970 36 94
971 36 247
972 36 875
973 36 905
974 35 903
975 35 469
976 35 933
977 34 875
978 34 686
979 34 21
980 34 644
981 34 258
982 33 540
983 33 842
984 33 346
985 33 736
986 33 396
987 33 942
988 33 822
989 32 808
990 32 399
991 31 176
992 31 931
993 31 196
994 31 95
995 31 495
996 30 332
997 30 619
998 30 721
999 30 43
1000 30 680
